Version identifier: 20.1.0.0 | 2020-11-10 | 9bedb6d68
CPXPARAM_Threads                                 1
CPXPARAM_TimeLimit                               7200
CPXPARAM_MIP_Tolerances_MIPGap                   0
Generic callback                                 0x60
1 of 1 MIP starts provided solutions.
MIP start 'm1' defined initial solution with objective 2702.5079.
Tried aggregator 1 time.
Reduced MIP has 640801 rows, 640801 columns, and 1920800 nonzeros.
Reduced MIP has 800 binaries, 0 generals, 0 SOSs, and 0 indicators.
Presolve time = 0.63 sec. (607.18 ticks)
Probing time = 0.08 sec. (80.04 ticks)
Tried aggregator 1 time.
Reduced MIP has 640801 rows, 640801 columns, and 1920800 nonzeros.
Reduced MIP has 800 binaries, 0 generals, 0 SOSs, and 0 indicators.
Presolve time = 0.62 sec. (596.80 ticks)
Probing time = 0.08 sec. (80.04 ticks)
MIP emphasis: balance optimality and feasibility.
MIP search method: dynamic search.
Parallel mode: none, using 1 thread.
Root relaxation solution time = 0.21 sec. (246.83 ticks)

        Nodes                                         Cuts/
   Node  Left     Objective  IInf  Best Integer    Best Bound    ItCnt     Gap

*     0+    0                         2702.5079     4368.0000            61.63%
      0     0     2703.5025    22     2702.5079     4368.0000        0   61.63%
      0     2     2703.2994    36     2702.5079     2703.2992        0    0.03%
Elapsed time = 84.38 sec. (68697.67 ticks, tree = 0.01 MB, solutions = 1)
      1     3     2703.2517    43     2702.5079     2703.2992       88    0.03%
      2     4     2703.2459    19     2702.5079     2703.2516      295    0.03%
      4     6     2703.2086    10     2702.5079     2703.2516      361    0.03%
      6     8     2703.0961    13     2702.5079     2703.2516     1070    0.03%
      7     9     2703.1629     8     2702.5079     2703.2516     1180    0.03%
      8    10     2702.9272     6     2702.5079     2703.2516     2098    0.03%
      9    11     2702.7002     4     2702.5079     2703.2516     2665    0.03%
*    10    10      integral     0     2702.6573     2703.2516     7961    0.02%
     11    11     2702.6870     4     2702.6573     2703.2516     8239    0.02%
*    12    10      integral     0     2702.6732     2703.2516     8402    0.02%
Elapsed time = 152.87 sec. (93033.88 ticks, tree = 2.07 MB, solutions = 3)
     13     9        cutoff           2702.6732     2703.2516     8431    0.02%
     14    10     2703.1570    17     2702.6732     2703.2515     9349    0.02%
     15    11     2703.1379    23     2702.6732     2703.2515     9882    0.02%
     16    12     2703.1434    22     2702.6732     2703.2515    13541    0.02%
*    18     9      integral     0     2703.1315     2703.2515    13576    0.00%
     19     8        cutoff           2703.1315     2703.2515    13579    0.00%
     20     9     2703.2463    41     2703.1315     2703.2463    13620    0.00%
     21    10     2703.1801    38     2703.1315     2703.2463    13808    0.00%
     23    10     2703.1394    34     2703.1315     2703.2463    13917    0.00%
     26     9     2703.2330    36     2703.1315     2703.2422    14006    0.00%
     29    10        cutoff           2703.1315     2703.2422    14277    0.00%
Elapsed time = 212.84 sec. (111456.93 ticks, tree = 2.07 MB, solutions = 4)
     31     8        cutoff           2703.1315     2703.2397    14495    0.00%
     33    10     2703.1717     7     2703.1315     2703.2317    14747    0.00%
*    34     5      integral     0     2703.1677     2703.2317    14748    0.00%
     36     4     2703.2092     6     2703.1677     2703.2090    14977    0.00%
     38     2        cutoff           2703.1677     2703.2086    15166    0.00%
     40     2     2703.1847    21     2703.1677     2703.1840    15273    0.00%

User cuts applied:  3

Root node processing (before b&c):
  Real time             =   84.40 sec. (68697.84 ticks)
Sequential b&c:
  Real time             =  155.84 sec. (52082.75 ticks)
                          ------------
Total (root+branch&cut) =  240.24 sec. (120780.58 ticks)
@Parameters: 
is_S_cut                                true
is_add_all_yinF                         true
is_start_value                          true
is_usercut                              true
is_visualization                        false
uc_only_rootnode                        false

data                                    Qi
fn                                      data/Qi/instance_800_800.csv
mode                                    ZLP
solver                                  cplex

p                                       50
r                                       10

EPS                                     1.0e-06
EPS_vio                                 1.0e-04
beta                                    0.10
gap                                     0.00
nodelimit                               Inf
timelimit                               7200.00


@PrintInfos
ItCnt: 15302
Current gap: 0.00 %
Termination Status: OPTIMAL
Primal Status: FEASIBLE_POINT
Solve Time: 240.24 sec
Objective Value: 2703.167705
Number of Nodes:     43

CutInfo: [phase] num / time (sec) 
ZLP             [phase1]     0 / 0.00 [rLC]     4 / 11.70 [rUC]     2 / 4.21 [sLC]     0 / 6.89 [sUC]     1 / 89.76 
OldSubmodular   [phase1]     0 / 0.00 [rLC]     0 / 0.00 [rUC]     0 / 0.00 [sLC]     0 / 0.00 [sUC]     0 / 0.00 
NewSubmodular   [phase1]     0 / 0.00 [rLC]     0 / 0.00 [rUC]     0 / 0.00 [sLC]     0 / 0.00 [sUC]     0 / 0.00 
PMP             [phase1]     0 / 0.00 [rLC]     5 / 7.31 [rUC]     2 / 2.48 [sLC]     4 / 5.29 [sUC]    49 / 63.76 
Separation Round: [phase1] 0  [rLC] 5  [rUC] 2  [sLC] 4  [sUC] 49
Root Best Bound 2703.251631
Root Best Integer: 2702.507903
Best Bound: 2703.167705
Best Integer: 2703.167705

